
******************************************************************************
This program contains Ipopt, a library for large-scale nonlinear optimization.
 Ipopt is released as open source code under the Eclipse Public License (EPL).
         For more information visit http://projects.coin-or.org/Ipopt
******************************************************************************

This is Ipopt version 3.12.6, running with linear solver ma57.

Number of nonzeros in equality constraint Jacobian...:        0
Number of nonzeros in inequality constraint Jacobian.:       32
Number of nonzeros in Lagrangian Hessian.............:       11

Total number of variables............................:       10
                     variables with only lower bounds:        0
                variables with lower and upper bounds:        0
                     variables with only upper bounds:        0
Total number of equality constraints.................:        0
Total number of inequality constraints...............:        8
        inequality constraints with only lower bounds:        8
   inequality constraints with lower and upper bounds:        0
        inequality constraints with only upper bounds:        0

iter    objective    inf_pr   inf_du lg(mu)  ||d||  lg(rg) alpha_du alpha_pr  ls
   0  7.5300000e+02 0.00e+00 9.30e+00  -1.0 0.00e+00    -  0.00e+00 0.00e+00   0
   1  6.2112302e+01 5.42e+00 1.61e+01  -1.0 9.62e+01    -  7.33e-01 9.08e-01f  1
   2  4.4377468e+01 9.61e-01 6.61e+00  -1.0 3.36e+01    -  2.71e-01 6.02e-01f  1
   3  3.5789406e+01 3.96e+00 5.41e+00  -1.0 1.68e+02    -  3.51e-01 1.80e-01f  1
   4  2.9717486e+01 0.00e+00 1.06e+00  -1.0 1.28e+01    -  1.00e+00 1.00e+00f  1
   5  2.5796136e+01 0.00e+00 7.17e-02  -1.0 1.59e+01    -  1.00e+00 1.00e+00f  1
   6  2.4563882e+01 6.59e-03 1.08e-02  -1.7 8.72e+00    -  1.00e+00 1.00e+00f  1
   7  2.4355272e+01 4.47e-03 1.49e-03  -2.5 3.84e+00    -  1.00e+00 1.00e+00h  1
   8  2.4329315e+01 0.00e+00 2.59e-04  -2.5 1.31e+00    -  1.00e+00 1.00e+00h  1
   9  2.4307489e+01 0.00e+00 1.19e-05  -3.8 3.47e-01    -  1.00e+00 1.00e+00h  1
iter    objective    inf_pr   inf_du lg(mu)  ||d||  lg(rg) alpha_du alpha_pr  ls
  10  2.4306223e+01 0.00e+00 5.13e-08  -5.7 2.34e-02    -  1.00e+00 1.00e+00h  1
  11  2.4306209e+01 0.00e+00 3.39e-12  -8.6 1.72e-04    -  1.00e+00 1.00e+00h  1

Number of Iterations....: 11

                                   (scaled)                 (unscaled)
Objective...............:   2.1701972360014882e+01    2.4306209043216665e+01
Dual infeasibility......:   3.3937297416741785e-12    3.8009773106750795e-12
Constraint violation....:   0.0000000000000000e+00    0.0000000000000000e+00
Complementarity.........:   2.5731458933618138e-09    2.8819234005652313e-09
Overall NLP error.......:   2.5731458933618138e-09    2.8819234005652313e-09


Number of objective function evaluations             = 12
Number of objective gradient evaluations             = 12
Number of equality constraint evaluations            = 0
Number of inequality constraint evaluations          = 12
Number of equality constraint Jacobian evaluations   = 0
Number of inequality constraint Jacobian evaluations = 12
Number of Lagrangian Hessian evaluations             = 11
Total CPU secs in IPOPT (w/o function evaluations)   =      0.007
Total CPU secs in NLP function evaluations           =      0.000

EXIT: Optimal Solution Found.

************************ CUTEst statistics ************************


 Package used            :  IPOPT
 Problem                 :  HS113     
 # variables             =              10
 # constraints           =               8
 # objective functions   =        0.2500000E+02
 # objective gradients   =        0.1300000E+02
 # objective Hessians    =        0.1200000E+02
 # Hessian-vector prdct  =        0.0000000E+00
 # constraints functions =        0.2600000E+02
 # constraints gradients =        0.1400000E+02
 # constraints Hessians  =        0.1200000E+02
 Exit code               =               0
 Final f                 =   0.2430621E+02
 Set up time             =            0.00 seconds
 Solve time              =            0.02 seconds


******************************************************************

System Time =       0.0049999999 s.
